42	3
11	11	12
0	0	0	0	2	3	2
8	11	11	12	1	4
3	11	11	12	2	4	7
6	11	11	12	1	5
5	11	11	12	1	6
2	0	1	5	2	9	12
9	6	10	9	1	8
5	11	10	7	1	12
10	11	3	12	1	10
5	11	3	12	2	11	16
10	11	11	12	2	15	18
1	11	11	12	2	13	17
6	0	0	0	1	14
10	0	8	0	2	16	19
8	5	1	3	1	17
8	11	6	12	2	18	21
5	5	7	3	1	19
7	6	6	8	2	20	22
4	0	5	0	1	21
7	6	6	8	2	23	27
10	5	5	4	1	22
6	11	11	12	1	24
8	6	4	9	1	31
2	11	11	12	1	25
1	11	11	12	1	26
4	5	5	3	2	27	31
2	11	11	12	2	28	35
9	0	5	3	2	29	36
7	0	0	0	1	30
2	0	0	3	1	40
7	11	11	9	1	32
10	11	11	9	1	33
5	11	11	9	2	34	40
10	11	6	8	1	35
4	11	6	8	1	36
1	11	11	12	1	37
9	11	11	9	1	38
4	11	6	8	1	39
10	11	11	9	1	41
8	0	5	4	1	42
2	11	11	9	1	42
0	0	0	0	0
